[1, 280, 2, 242, 241, 240, 246, 239, 238, 231, 232, 237, 236, 233, 234, 235, 227, 228, 229, 230, 251, 250, 247, 244, 245, 243, 249, 248, 3, 279, 278, 260, 259, 258, 257, 254, 253, 252, 255, 256, 209, 210, 207, 212, 213, 216, 215, 214, 211, 205, 204, 203, 202, 201, 198, 199, 200, 144, 145, 146, 143, 142, 147, 148, 141, 149, 150, 179, 180, 182, 183, 184, 185, 187, 188, 189, 190, 191, 192, 193, 186, 174, 173, 172, 171, 170, 102, 103, 104, 108, 109, 90, 91, 92, 93, 94, 95, 96, 97, 98, 99, 100, 101, 169, 168, 167, 166, 165, 164, 163, 162, 161, 175, 160, 159, 158, 157, 119, 120, 121, 122, 123, 126, 30, 31, 32, 33, 34, 35, 36, 37, 38, 39, 40, 41, 42, 43, 60, 61, 62, 118, 117, 115, 114, 111, 110, 112, 113, 116, 86, 85, 65, 66, 67, 70, 71, 72, 73, 74, 75, 77, 78, 79, 80, 81, 89, 82, 83, 84, 87, 88, 76, 64, 63, 107, 106, 105, 69, 68, 56, 57, 58, 59, 44, 45, 46, 47, 54, 55, 53, 48, 52, 51, 50, 49, 154, 155, 153, 156, 152, 178, 177, 151, 176, 181, 195, 196, 197, 194, 221, 222, 223, 224, 225, 226, 218, 219, 220, 217, 206, 208, 264, 263, 262, 261, 267, 137, 138, 139, 140, 266, 265, 136, 268, 269, 270, 134, 135, 20, 131, 132, 133, 18, 19, 22, 26, 27, 28, 29, 125, 124, 21, 130, 129, 128, 127, 25, 23, 24, 14, 15, 13, 6, 5, 4, 277, 276, 275, 274, 273, 272, 271, 16, 17, 9, 8, 10, 11, 12, 7]
[1, 2, 3, 4, 7, 8, 9, 10, 11, 12, 13, 14, 15, 16, 20, 22, 24, 27, 49, 106, 123, 124, 126, 127, 128, 129, 220, 221, 271, 273, 274, 275, 276]
